
Gurobi 7.5.2 (linux64) logging started Sat Jun 23 16:31:05 2018

Changed value of parameter LogFile to result/ilp/simNo_6-n_100-m_40-s_7-minVAF_0.05-cov_2000-k_2-fn_0.15-fp_0.0001-na_0.15.ILP.gurobiSolverLog
   Prev: gurobi.log  Default: 
Changed value of parameter TimeLimit to 86400.0
   Prev: 1e+100  Min: 0.0  Max: 1e+100  Default: 1e+100
Optimize a model with 1265601 rows, 330440 columns and 3489120 nonzeros
Variable types: 0 continuous, 330440 integer (330440 binary)
Coefficient statistics:
  Matrix range     [8e-04, 3e+00]
  Objective range  [1e+00, 1e+01]
  Bounds range     [1e+00, 1e+00]
  RHS range        [8e-02, 2e+00]
Found heuristic solution: objective -10463.83988
Presolve removed 395292 rows and 226477 columns (presolve time = 6s) ...
Presolve removed 395538 rows and 226477 columns (presolve time = 10s) ...
Presolve removed 395538 rows and 226477 columns (presolve time = 15s) ...
Presolve removed 395538 rows and 226477 columns (presolve time = 21s) ...
Presolve removed 395538 rows and 226477 columns (presolve time = 25s) ...
Presolve removed 395538 rows and 226477 columns (presolve time = 30s) ...
Presolve removed 395538 rows and 226477 columns (presolve time = 37s) ...
Presolve removed 395538 rows and 226477 columns
Presolve time: 39.34s
Presolved: 870063 rows, 103963 columns, 2420435 nonzeros
Variable types: 0 continuous, 103963 integer (103963 binary)
Presolved: 103963 rows, 974026 columns, 2524398 nonzeros

Presolve removed 103963 rows and 974026 columns

Root simplex log...

Iteration    Objective       Primal Inf.    Dual Inf.      Time
       0    2.8929545e+01   0.000000e+00   7.316100e+04     49s
    7629   -1.2638627e+02   0.000000e+00   3.872250e+04     50s
   21248   -2.3457845e+02   0.000000e+00   1.065225e+04     55s
   23222   -2.3812135e+02   0.000000e+00   0.000000e+00     57s
   23222   -2.3812135e+02   0.000000e+00   0.000000e+00     59s

Root relaxation: objective -2.381213e+02, 23222 iterations, 16.62 seconds
Total elapsed time = 60.62s
Total elapsed time = 85.25s
Total elapsed time = 92.88s

    Nodes    |    Current Node    |     Objective Bounds      |     Work
 Expl Unexpl |  Obj  Depth IntInf | Incumbent    BestBd   Gap | It/Node Time

     0     0 -238.12135    0  824 -10463.840 -238.12135  97.7%     -   98s
H    0     0                    -260.4598315 -238.12135  8.58%     -  115s
     0     0 -241.67228    0  334 -260.45983 -241.67228  7.21%     -  139s
H    0     0                    -258.0699412 -241.67228  6.35%     -  154s
     0     0 -243.40688    0  336 -258.06994 -243.40688  5.68%     -  166s
     0     0 -244.27418    0  317 -258.06994 -244.27418  5.35%     -  188s
     0     0 -245.16851    0  833 -258.06994 -245.16851  5.00%     -  208s
     0     0 -245.16851    0  835 -258.06994 -245.16851  5.00%     -  221s
     0     0 -246.05382    0  888 -258.06994 -246.05382  4.66%     -  237s
     0     0 -246.05382    0  891 -258.06994 -246.05382  4.66%     -  251s
     0     0 -246.36070    0  824 -258.06994 -246.36070  4.54%     -  268s
     0     0 -248.07977    0  898 -258.06994 -248.07977  3.87%     -  291s
     0     0 -248.35363    0  907 -258.06994 -248.35363  3.76%     -  309s
     0     0 -248.42088    0  886 -258.06994 -248.42088  3.74%     -  318s
     0     0 -248.42088    0  889 -258.06994 -248.42088  3.74%     -  324s
     0     0 -249.67072    0  339 -258.06994 -249.67072  3.25%     -  343s
     0     0 -249.69774    0  932 -258.06994 -249.69774  3.24%     -  359s
     0     0 -249.69774    0  932 -258.06994 -249.69774  3.24%     -  367s
     0     0 -249.83463    0  923 -258.06994 -249.83463  3.19%     -  384s
     0     0 -249.83463    0  927 -258.06994 -249.83463  3.19%     -  399s
     0     0 -250.38732    0  925 -258.06994 -250.38732  2.98%     -  419s
     0     0 -250.40833    0  898 -258.06994 -250.40833  2.97%     -  435s
     0     0 -250.49875    0  926 -258.06994 -250.49875  2.93%     -  444s
     0     0 -250.49875    0  927 -258.06994 -250.49875  2.93%     -  451s
     0     0 -251.47313    0  924 -258.06994 -251.47313  2.56%     -  468s
     0     0 -251.63040    0  900 -258.06994 -251.63040  2.50%     -  484s
     0     0 -251.66110    0  905 -258.06994 -251.66110  2.48%     -  493s
     0     0 -251.66110    0  905 -258.06994 -251.66110  2.48%     -  501s
     0     0 -252.32842    0  439 -258.06994 -252.32842  2.22%     -  519s
     0     0 -252.38730    0  442 -258.06994 -252.38730  2.20%     -  534s
     0     0 -252.38730    0  444 -258.06994 -252.38730  2.20%     -  542s
     0     0 -252.75958    0  444 -258.06994 -252.75958  2.06%     -  558s
     0     0 -252.79432    0  427 -258.06994 -252.79432  2.04%     -  573s
     0     0 -252.83126    0  441 -258.06994 -252.83126  2.03%     -  581s
     0     0 -252.87363    0  438 -258.06994 -252.87363  2.01%     -  590s
     0     0 -252.91026    0  440 -258.06994 -252.91026  2.00%     -  599s
     0     0 -252.91026    0  442 -258.06994 -252.91026  2.00%     -  606s
     0     0 -252.94386    0  431 -258.06994 -252.94386  1.99%     -  617s
     0     0 -253.05540    0  435 -258.06994 -253.05540  1.94%     -  631s
     0     0 -253.08207    0  445 -258.06994 -253.08207  1.93%     -  641s
     0     0 -253.08371    0  435 -258.06994 -253.08371  1.93%     -  648s
     0     0 -253.08371    0  436 -258.06994 -253.08371  1.93%     -  654s
     0     0 -253.12145    0  441 -258.06994 -253.12145  1.92%     -  665s
     0     0 -253.12212    0  450 -258.06994 -253.12212  1.92%     -  677s
     0     0 -254.03003    0  448 -258.06994 -254.03003  1.57%     -  693s
     0     0 -254.03003    0  444 -258.06994 -254.03003  1.57%     -  705s
     0     0 -254.82251    0  436 -258.06994 -254.82251  1.26%     -  721s
     0     0 -254.85808    0  435 -258.06994 -254.85808  1.24%     -  734s
     0     0 -254.89563    0  440 -258.06994 -254.89563  1.23%     -  743s
     0     0 -254.89577    0  363 -258.06994 -254.89577  1.23%     -  750s
     0     0 -254.97156    0  438 -258.06994 -254.97156  1.20%     -  764s
     0     0 -255.03409    0  377 -258.06994 -255.03409  1.18%     -  777s
     0     0 -255.03409    0  380 -258.06994 -255.03409  1.18%     -  785s
     0     0 -255.77875    0  353 -258.06994 -255.77875  0.89%     -  803s
     0     0 -255.78416    0  352 -258.06994 -255.78416  0.89%     -  815s
     0     0 -255.78416    0  353 -258.06994 -255.78416  0.89%     -  823s
     0     0 -255.81117    0  353 -258.06994 -255.81117  0.88%     -  836s
     0     0 -255.81117    0  349 -258.06994 -255.81117  0.88%     -  850s
     0     0 -255.81117    0  350 -258.06994 -255.81117  0.88%     -  864s
     0     0 -255.81117    0  346 -258.06994 -255.81117  0.88%     -  875s
     0     0 -255.81117    0  349 -258.06994 -255.81117  0.88%     -  910s
     0     0 -255.81117    0  349 -258.06994 -255.81117  0.88%     -  931s
     0     0 -255.81117    0  163 -258.06994 -255.81117  0.88%     - 1064s
     0     0 -255.81117    0  145 -258.06994 -255.81117  0.88%     - 1069s
     0     0 -255.81117    0  190 -258.06994 -255.81117  0.88%     - 1072s
     0     0 -255.81117    0  176 -258.06994 -255.81117  0.88%     - 1074s
     0     0 -255.81117    0  159 -258.06994 -255.81117  0.88%     - 1075s
     0     0 -255.81117    0  176 -258.06994 -255.81117  0.88%     - 1077s
     0     0 -256.43047    0  152 -258.06994 -256.43047  0.64%     - 1082s
     0     0 -256.43047    0  113 -258.06994 -256.43047  0.64%     - 1092s
     0     0 -256.43047    0  142 -258.06994 -256.43047  0.64%     - 1094s
     0     0 -256.43047    0   85 -258.06994 -256.43047  0.64%     - 1095s
     0     0 -256.43191    0  107 -258.06994 -256.43191  0.63%     - 1095s
     0     0 -256.44373    0  105 -258.06994 -256.44373  0.63%     - 1095s
     0     0 -256.44950    0  105 -258.06994 -256.44950  0.63%     - 1096s
     0     0 -256.44950    0  107 -258.06994 -256.44950  0.63%     - 1096s
     0     0 -256.50798    0  108 -258.06994 -256.50798  0.61%     - 1097s
     0     0 -256.50798    0   62 -258.06994 -256.50798  0.61%     - 1099s
     0     0 -256.50798    0   89 -258.06994 -256.50798  0.61%     - 1099s
     0     0 -256.50798    0   75 -258.06994 -256.50798  0.61%     - 1099s
     0     0 -256.50798    0   75 -258.06994 -256.50798  0.61%     - 1099s
     0     0 -256.50929    0   90 -258.06994 -256.50929  0.60%     - 1100s
     0     0 -256.51942    0   88 -258.06994 -256.51942  0.60%     - 1100s
     0     0 -256.51942    0   89 -258.06994 -256.51942  0.60%     - 1100s
     0     0 -256.55377    0   72 -258.06994 -256.55377  0.59%     - 1100s
     0     0 -256.74136    0   76 -258.06994 -256.74136  0.51%     - 1100s
     0     0 -256.77037    0   72 -258.06994 -256.77037  0.50%     - 1100s
     0     0 -256.77037    0   73 -258.06994 -256.77037  0.50%     - 1100s
     0     0 -257.04660    0   73 -258.06994 -257.04660  0.40%     - 1100s
     0     0 -257.04796    0   76 -258.06994 -257.04796  0.40%     - 1101s
     0     0 -257.05909    0   78 -258.06994 -257.05909  0.39%     - 1101s
     0     0 -257.05909    0   76 -258.06994 -257.05909  0.39%     - 1101s
     0     0 -257.06040    0   77 -258.06994 -257.06040  0.39%     - 1101s
     0     0 -257.06040    0   78 -258.06994 -257.06040  0.39%     - 1101s
     0     0 -257.06040    0   79 -258.06994 -257.06040  0.39%     - 1101s
     0     0 -257.06040    0   79 -258.06994 -257.06040  0.39%     - 1101s
     0     0     cutoff    0      -258.06994 -258.06994  0.00%     - 1102s

Cutting planes:
  Gomory: 3
  Zero half: 45

Explored 1 nodes (50299 simplex iterations) in 1103.02 seconds
Thread count was 1 (of 80 available processors)

Solution count 6: -258.07 -258.07 -258.07 ... -10463.8

Optimal solution found (tolerance 1.00e-04)
Best objective -2.580699411989e+02, best bound -2.580699411989e+02, gap 0.0000%
